10
1 0 3
2 0 16
2 1 5
3 0 3
3 1 16
3 2 11
4 0 2
4 1 20
4 2 12
4 3 5
5 0 7
5 1 12
5 2 15
5 3 10
5 4 9
6 0 12
6 1 5
6 2 7
6 3 20
6 4 8
6 5 7
7 0 15
7 1 9
7 2 1
7 3 6
7 4 3
7 5 7
7 6 17
8 0 14
8 1 15
8 2 7
8 3 3
8 4 10
8 5 12
8 6 5
8 7 2
9 0 14
9 1 10
9 2 18
9 3 17
9 4 3
9 5 4
9 6 10
9 7 14
9 8 14
